NAME : P112112.53123.tour
COMMENT : Length = 53123
COMMENT : Found by LKH-3 [Keld Helsgaun] Tue Dec 17 14:07:02 2024
TYPE : TOUR
DIMENSION : 120
TOUR_SECTION
1
21
111
2
112
3
13
113
4
18
17
12
114
5
11
115
6
116
7
117
8
22
14
91
102
84
83
110
100
88
101
94
98
107
109
105
95
82
81
96
89
97
103
85
93
104
106
86
92
87
90
108
99
16
23
25
20
15
44
43
45
31
30
47
42
48
29
27
51
26
37
49
35
36
33
46
28
34
39
40
32
50
41
38
118
9
119
10
80
68
60
76
59
73
65
61
67
64
56
63
77
52
70
71
24
53
75
54
74
55
69
57
66
58
78
79
72
62
19
120
-1
EOF
